p cnf 36 373
c id 1 type at_least_one
1 2 3 4 5 6 7 8 9 0
c id 2 type at_most_one
-1 -2 0
c id 3 type at_most_one
-1 -3 0
c id 4 type at_most_one
-1 -4 0
c id 5 type at_most_one
-1 -5 0
c id 6 type at_most_one
-1 -6 0
c id 7 type at_most_one
-1 -7 0
c id 8 type at_most_one
-1 -8 0
c id 9 type at_most_one
-1 -9 0
c id 10 type at_most_one
-2 -3 0
c id 11 type at_most_one
-2 -4 0
c id 12 type at_most_one
-2 -5 0
c id 13 type at_most_one
-2 -6 0
c id 14 type at_most_one
-2 -7 0
c id 15 type at_most_one
-2 -8 0
c id 16 type at_most_one
-2 -9 0
c id 17 type at_most_one
-3 -4 0
c id 18 type at_most_one
-3 -5 0
c id 19 type at_most_one
-3 -6 0
c id 20 type at_most_one
-3 -7 0
c id 21 type at_most_one
-3 -8 0
c id 22 type at_most_one
-3 -9 0
c id 23 type at_most_one
-4 -5 0
c id 24 type at_most_one
-4 -6 0
c id 25 type at_most_one
-4 -7 0
c id 26 type at_most_one
-4 -8 0
c id 27 type at_most_one
-4 -9 0
c id 28 type at_most_one
-5 -6 0
c id 29 type at_most_one
-5 -7 0
c id 30 type at_most_one
-5 -8 0
c id 31 type at_most_one
-5 -9 0
c id 32 type at_most_one
-6 -7 0
c id 33 type at_most_one
-6 -8 0
c id 34 type at_most_one
-6 -9 0
c id 35 type at_most_one
-7 -8 0
c id 36 type at_most_one
-7 -9 0
c id 37 type at_most_one
-8 -9 0
c id 38 type at_least_one
10 11 12 13 14 15 16 17 18 0
c id 39 type at_most_one
-10 -11 0
c id 40 type at_most_one
-10 -12 0
c id 41 type at_most_one
-10 -13 0
c id 42 type at_most_one
-10 -14 0
c id 43 type at_most_one
-10 -15 0
c id 44 type at_most_one
-10 -16 0
c id 45 type at_most_one
-10 -17 0
c id 46 type at_most_one
-10 -18 0
c id 47 type at_most_one
-11 -12 0
c id 48 type at_most_one
-11 -13 0
c id 49 type at_most_one
-11 -14 0
c id 50 type at_most_one
-11 -15 0
c id 51 type at_most_one
-11 -16 0
c id 52 type at_most_one
-11 -17 0
c id 53 type at_most_one
-11 -18 0
c id 54 type at_most_one
-12 -13 0
c id 55 type at_most_one
-12 -14 0
c id 56 type at_most_one
-12 -15 0
c id 57 type at_most_one
-12 -16 0
c id 58 type at_most_one
-12 -17 0
c id 59 type at_most_one
-12 -18 0
c id 60 type at_most_one
-13 -14 0
c id 61 type at_most_one
-13 -15 0
c id 62 type at_most_one
-13 -16 0
c id 63 type at_most_one
-13 -17 0
c id 64 type at_most_one
-13 -18 0
c id 65 type at_most_one
-14 -15 0
c id 66 type at_most_one
-14 -16 0
c id 67 type at_most_one
-14 -17 0
c id 68 type at_most_one
-14 -18 0
c id 69 type at_most_one
-15 -16 0
c id 70 type at_most_one
-15 -17 0
c id 71 type at_most_one
-15 -18 0
c id 72 type at_most_one
-16 -17 0
c id 73 type at_most_one
-16 -18 0
c id 74 type at_most_one
-17 -18 0
c id 75 type at_least_one
19 20 21 22 23 24 25 26 27 0
c id 76 type at_most_one
-19 -20 0
c id 77 type at_most_one
-19 -21 0
c id 78 type at_most_one
-19 -22 0
c id 79 type at_most_one
-19 -23 0
c id 80 type at_most_one
-19 -24 0
c id 81 type at_most_one
-19 -25 0
c id 82 type at_most_one
-19 -26 0
c id 83 type at_most_one
-19 -27 0
c id 84 type at_most_one
-20 -21 0
c id 85 type at_most_one
-20 -22 0
c id 86 type at_most_one
-20 -23 0
c id 87 type at_most_one
-20 -24 0
c id 88 type at_most_one
-20 -25 0
c id 89 type at_most_one
-20 -26 0
c id 90 type at_most_one
-20 -27 0
c id 91 type at_most_one
-21 -22 0
c id 92 type at_most_one
-21 -23 0
c id 93 type at_most_one
-21 -24 0
c id 94 type at_most_one
-21 -25 0
c id 95 type at_most_one
-21 -26 0
c id 96 type at_most_one
-21 -27 0
c id 97 type at_most_one
-22 -23 0
c id 98 type at_most_one
-22 -24 0
c id 99 type at_most_one
-22 -25 0
c id 100 type at_most_one
-22 -26 0
c id 101 type at_most_one
-22 -27 0
c id 102 type at_most_one
-23 -24 0
c id 103 type at_most_one
-23 -25 0
c id 104 type at_most_one
-23 -26 0
c id 105 type at_most_one
-23 -27 0
c id 106 type at_most_one
-24 -25 0
c id 107 type at_most_one
-24 -26 0
c id 108 type at_most_one
-24 -27 0
c id 109 type at_most_one
-25 -26 0
c id 110 type at_most_one
-25 -27 0
c id 111 type at_most_one
-26 -27 0
c id 112 type at_least_one
28 29 30 31 32 33 34 35 36 0
c id 113 type at_most_one
-28 -29 0
c id 114 type at_most_one
-28 -30 0
c id 115 type at_most_one
-28 -31 0
c id 116 type at_most_one
-28 -32 0
c id 117 type at_most_one
-28 -33 0
c id 118 type at_most_one
-28 -34 0
c id 119 type at_most_one
-28 -35 0
c id 120 type at_most_one
-28 -36 0
c id 121 type at_most_one
-29 -30 0
c id 122 type at_most_one
-29 -31 0
c id 123 type at_most_one
-29 -32 0
c id 124 type at_most_one
-29 -33 0
c id 125 type at_most_one
-29 -34 0
c id 126 type at_most_one
-29 -35 0
c id 127 type at_most_one
-29 -36 0
c id 128 type at_most_one
-30 -31 0
c id 129 type at_most_one
-30 -32 0
c id 130 type at_most_one
-30 -33 0
c id 131 type at_most_one
-30 -34 0
c id 132 type at_most_one
-30 -35 0
c id 133 type at_most_one
-30 -36 0
c id 134 type at_most_one
-31 -32 0
c id 135 type at_most_one
-31 -33 0
c id 136 type at_most_one
-31 -34 0
c id 137 type at_most_one
-31 -35 0
c id 138 type at_most_one
-31 -36 0
c id 139 type at_most_one
-32 -33 0
c id 140 type at_most_one
-32 -34 0
c id 141 type at_most_one
-32 -35 0
c id 142 type at_most_one
-32 -36 0
c id 143 type at_most_one
-33 -34 0
c id 144 type at_most_one
-33 -35 0
c id 145 type at_most_one
-33 -36 0
c id 146 type at_most_one
-34 -35 0
c id 147 type at_most_one
-34 -36 0
c id 148 type at_most_one
-35 -36 0
c id 149 type mutual_exclusion
-1 -10 0
c id 150 type mutual_exclusion
-1 -19 0
c id 151 type mutual_exclusion
-1 -28 0
c id 152 type mutual_exclusion
-10 -19 0
c id 153 type mutual_exclusion
-10 -28 0
c id 154 type mutual_exclusion
-19 -28 0
c id 155 type mutual_exclusion
-2 -11 0
c id 156 type mutual_exclusion
-2 -20 0
c id 157 type mutual_exclusion
-2 -29 0
c id 158 type mutual_exclusion
-11 -20 0
c id 159 type mutual_exclusion
-11 -29 0
c id 160 type mutual_exclusion
-20 -29 0
c id 161 type mutual_exclusion
-3 -12 0
c id 162 type mutual_exclusion
-3 -21 0
c id 163 type mutual_exclusion
-3 -30 0
c id 164 type mutual_exclusion
-12 -21 0
c id 165 type mutual_exclusion
-12 -30 0
c id 166 type mutual_exclusion
-21 -30 0
c id 167 type mutual_exclusion
-4 -13 0
c id 168 type mutual_exclusion
-4 -22 0
c id 169 type mutual_exclusion
-4 -31 0
c id 170 type mutual_exclusion
-13 -22 0
c id 171 type mutual_exclusion
-13 -31 0
c id 172 type mutual_exclusion
-22 -31 0
c id 173 type mutual_exclusion
-5 -14 0
c id 174 type mutual_exclusion
-5 -23 0
c id 175 type mutual_exclusion
-5 -32 0
c id 176 type mutual_exclusion
-14 -23 0
c id 177 type mutual_exclusion
-14 -32 0
c id 178 type mutual_exclusion
-23 -32 0
c id 179 type mutual_exclusion
-6 -15 0
c id 180 type mutual_exclusion
-6 -24 0
c id 181 type mutual_exclusion
-6 -33 0
c id 182 type mutual_exclusion
-15 -24 0
c id 183 type mutual_exclusion
-15 -33 0
c id 184 type mutual_exclusion
-24 -33 0
c id 185 type mutual_exclusion
-7 -16 0
c id 186 type mutual_exclusion
-7 -25 0
c id 187 type mutual_exclusion
-7 -34 0
c id 188 type mutual_exclusion
-16 -25 0
c id 189 type mutual_exclusion
-16 -34 0
c id 190 type mutual_exclusion
-25 -34 0
c id 191 type mutual_exclusion
-8 -17 0
c id 192 type mutual_exclusion
-8 -26 0
c id 193 type mutual_exclusion
-8 -35 0
c id 194 type mutual_exclusion
-17 -26 0
c id 195 type mutual_exclusion
-17 -35 0
c id 196 type mutual_exclusion
-26 -35 0
c id 197 type mutual_exclusion
-9 -18 0
c id 198 type mutual_exclusion
-9 -27 0
c id 199 type mutual_exclusion
-9 -36 0
c id 200 type mutual_exclusion
-18 -27 0
c id 201 type mutual_exclusion
-18 -36 0
c id 202 type mutual_exclusion
-27 -36 0
c id 203 type edge_consistency
-1 -28 0
c id 204 type edge_consistency
-1 -30 0
c id 205 type edge_consistency
-1 -32 0
c id 206 type edge_consistency
-1 -33 0
c id 207 type edge_consistency
-1 -34 0
c id 208 type edge_consistency
-1 -35 0
c id 209 type edge_consistency
-1 -36 0
c id 210 type edge_consistency
-2 -29 0
c id 211 type edge_consistency
-2 -31 0
c id 212 type edge_consistency
-2 -33 0
c id 213 type edge_consistency
-2 -34 0
c id 214 type edge_consistency
-2 -35 0
c id 215 type edge_consistency
-2 -36 0
c id 216 type edge_consistency
-3 -28 0
c id 217 type edge_consistency
-3 -30 0
c id 218 type edge_consistency
-3 -31 0
c id 219 type edge_consistency
-3 -32 0
c id 220 type edge_consistency
-3 -34 0
c id 221 type edge_consistency
-3 -35 0
c id 222 type edge_consistency
-3 -36 0
c id 223 type edge_consistency
-4 -29 0
c id 224 type edge_consistency
-4 -30 0
c id 225 type edge_consistency
-4 -31 0
c id 226 type edge_consistency
-4 -33 0
c id 227 type edge_consistency
-4 -35 0
c id 228 type edge_consistency
-4 -36 0
c id 229 type edge_consistency
-5 -28 0
c id 230 type edge_consistency
-5 -30 0
c id 231 type edge_consistency
-5 -32 0
c id 232 type edge_consistency
-5 -34 0
c id 233 type edge_consistency
-5 -36 0
c id 234 type edge_consistency
-6 -28 0
c id 235 type edge_consistency
-6 -29 0
c id 236 type edge_consistency
-6 -31 0
c id 237 type edge_consistency
-6 -33 0
c id 238 type edge_consistency
-6 -34 0
c id 239 type edge_consistency
-6 -35 0
c id 240 type edge_consistency
-7 -28 0
c id 241 type edge_consistency
-7 -29 0
c id 242 type edge_consistency
-7 -30 0
c id 243 type edge_consistency
-7 -32 0
c id 244 type edge_consistency
-7 -33 0
c id 245 type edge_consistency
-7 -34 0
c id 246 type edge_consistency
-7 -36 0
c id 247 type edge_consistency
-8 -28 0
c id 248 type edge_consistency
-8 -29 0
c id 249 type edge_consistency
-8 -30 0
c id 250 type edge_consistency
-8 -31 0
c id 251 type edge_consistency
-8 -33 0
c id 252 type edge_consistency
-8 -35 0
c id 253 type edge_consistency
-9 -28 0
c id 254 type edge_consistency
-9 -29 0
c id 255 type edge_consistency
-9 -30 0
c id 256 type edge_consistency
-9 -31 0
c id 257 type edge_consistency
-9 -32 0
c id 258 type edge_consistency
-9 -34 0
c id 259 type edge_consistency
-9 -36 0
c id 260 type edge_consistency
-28 -10 0
c id 261 type edge_consistency
-28 -12 0
c id 262 type edge_consistency
-28 -14 0
c id 263 type edge_consistency
-28 -15 0
c id 264 type edge_consistency
-28 -16 0
c id 265 type edge_consistency
-28 -17 0
c id 266 type edge_consistency
-28 -18 0
c id 267 type edge_consistency
-29 -11 0
c id 268 type edge_consistency
-29 -13 0
c id 269 type edge_consistency
-29 -15 0
c id 270 type edge_consistency
-29 -16 0
c id 271 type edge_consistency
-29 -17 0
c id 272 type edge_consistency
-29 -18 0
c id 273 type edge_consistency
-30 -10 0
c id 274 type edge_consistency
-30 -12 0
c id 275 type edge_consistency
-30 -13 0
c id 276 type edge_consistency
-30 -14 0
c id 277 type edge_consistency
-30 -16 0
c id 278 type edge_consistency
-30 -17 0
c id 279 type edge_consistency
-30 -18 0
c id 280 type edge_consistency
-31 -11 0
c id 281 type edge_consistency
-31 -12 0
c id 282 type edge_consistency
-31 -13 0
c id 283 type edge_consistency
-31 -15 0
c id 284 type edge_consistency
-31 -17 0
c id 285 type edge_consistency
-31 -18 0
c id 286 type edge_consistency
-32 -10 0
c id 287 type edge_consistency
-32 -12 0
c id 288 type edge_consistency
-32 -14 0
c id 289 type edge_consistency
-32 -16 0
c id 290 type edge_consistency
-32 -18 0
c id 291 type edge_consistency
-33 -10 0
c id 292 type edge_consistency
-33 -11 0
c id 293 type edge_consistency
-33 -13 0
c id 294 type edge_consistency
-33 -15 0
c id 295 type edge_consistency
-33 -16 0
c id 296 type edge_consistency
-33 -17 0
c id 297 type edge_consistency
-34 -10 0
c id 298 type edge_consistency
-34 -11 0
c id 299 type edge_consistency
-34 -12 0
c id 300 type edge_consistency
-34 -14 0
c id 301 type edge_consistency
-34 -15 0
c id 302 type edge_consistency
-34 -16 0
c id 303 type edge_consistency
-34 -18 0
c id 304 type edge_consistency
-35 -10 0
c id 305 type edge_consistency
-35 -11 0
c id 306 type edge_consistency
-35 -12 0
c id 307 type edge_consistency
-35 -13 0
c id 308 type edge_consistency
-35 -15 0
c id 309 type edge_consistency
-35 -17 0
c id 310 type edge_consistency
-36 -10 0
c id 311 type edge_consistency
-36 -11 0
c id 312 type edge_consistency
-36 -12 0
c id 313 type edge_consistency
-36 -13 0
c id 314 type edge_consistency
-36 -14 0
c id 315 type edge_consistency
-36 -16 0
c id 316 type edge_consistency
-36 -18 0
c id 317 type edge_consistency
-28 -19 0
c id 318 type edge_consistency
-28 -21 0
c id 319 type edge_consistency
-28 -23 0
c id 320 type edge_consistency
-28 -24 0
c id 321 type edge_consistency
-28 -25 0
c id 322 type edge_consistency
-28 -26 0
c id 323 type edge_consistency
-28 -27 0
c id 324 type edge_consistency
-29 -20 0
c id 325 type edge_consistency
-29 -22 0
c id 326 type edge_consistency
-29 -24 0
c id 327 type edge_consistency
-29 -25 0
c id 328 type edge_consistency
-29 -26 0
c id 329 type edge_consistency
-29 -27 0
c id 330 type edge_consistency
-30 -19 0
c id 331 type edge_consistency
-30 -21 0
c id 332 type edge_consistency
-30 -22 0
c id 333 type edge_consistency
-30 -23 0
c id 334 type edge_consistency
-30 -25 0
c id 335 type edge_consistency
-30 -26 0
c id 336 type edge_consistency
-30 -27 0
c id 337 type edge_consistency
-31 -20 0
c id 338 type edge_consistency
-31 -21 0
c id 339 type edge_consistency
-31 -22 0
c id 340 type edge_consistency
-31 -24 0
c id 341 type edge_consistency
-31 -26 0
c id 342 type edge_consistency
-31 -27 0
c id 343 type edge_consistency
-32 -19 0
c id 344 type edge_consistency
-32 -21 0
c id 345 type edge_consistency
-32 -23 0
c id 346 type edge_consistency
-32 -25 0
c id 347 type edge_consistency
-32 -27 0
c id 348 type edge_consistency
-33 -19 0
c id 349 type edge_consistency
-33 -20 0
c id 350 type edge_consistency
-33 -22 0
c id 351 type edge_consistency
-33 -24 0
c id 352 type edge_consistency
-33 -25 0
c id 353 type edge_consistency
-33 -26 0
c id 354 type edge_consistency
-34 -19 0
c id 355 type edge_consistency
-34 -20 0
c id 356 type edge_consistency
-34 -21 0
c id 357 type edge_consistency
-34 -23 0
c id 358 type edge_consistency
-34 -24 0
c id 359 type edge_consistency
-34 -25 0
c id 360 type edge_consistency
-34 -27 0
c id 361 type edge_consistency
-35 -19 0
c id 362 type edge_consistency
-35 -20 0
c id 363 type edge_consistency
-35 -21 0
c id 364 type edge_consistency
-35 -22 0
c id 365 type edge_consistency
-35 -24 0
c id 366 type edge_consistency
-35 -26 0
c id 367 type edge_consistency
-36 -19 0
c id 368 type edge_consistency
-36 -20 0
c id 369 type edge_consistency
-36 -21 0
c id 370 type edge_consistency
-36 -22 0
c id 371 type edge_consistency
-36 -23 0
c id 372 type edge_consistency
-36 -25 0
c id 373 type edge_consistency
-36 -27 0
